p cnf 100 112
-1 98 -99 0 
-2 98 -99 0 
-3 22 41 72 98 -99 0 
-4 -2 98 -99 0 
-5 98 -99 0 
-6 -2 98 -99 0 
-7 98 -99 0 
-8 29 35 81 89 90 99 -98 0 
-9 -10 67 79 85 98 -99 0 
-11 99 -98 0 
-12 28 33 51 97 -13 74 99 -98 0 
-14 98 -99 0 
-15 100 -98 -99 0 
-16 30 43 50 83 87 88 99 -98 0 
-17 98 -99 0 
-18 98 -99 0 
-19 98 -99 0 
-20 98 -99 0 
-21 98 -99 0 
-22 3 41 72 98 -99 0 
-23 37 48 65 91 99 -98 0 
-24 27 86 99 -98 0 
-4 98 -99 0 
-25 26 -10 67 79 85 98 -99 0 
-26 25 98 -99 0 
-27 24 86 98 -99 0 
-28 12 33 51 97 98 -99 0 
-29 8 35 81 89 90 98 -99 0 
-30 16 43 50 83 87 88 98 -99 0 
-6 98 -99 0 
-31 34 63 75 94 98 -99 0 
-6 100 -98 -99 0 
-32 39 42 68 98 -99 0 
-25 26 100 -98 -99 0 
-33 12 28 51 97 98 -99 0 
-34 31 63 75 94 100 -98 -99 0 
-35 8 29 81 89 90 98 -99 0 
-9 -36 49 98 -99 0 
-37 23 48 65 91 98 -99 0 
-38 98 -99 0 
-39 32 42 68 98 -99 0 
-40 44 58 96 98 -99 0 
-41 3 22 72 98 -99 0 
-42 32 39 68 98 -99 0 
-43 16 30 50 83 87 88 98 -99 0 
-5 98 -99 0 
-44 40 58 96 98 -99 0 
-44 40 58 96 -45 60 98 -99 0 
-7 100 -98 -99 0 
-46 70 73 77 98 -99 0 
-47 80 98 -99 0 
-25 26 -48 23 37 65 91 100 -98 -99 0 
-25 26 -49 36 100 -98 -99 0 
-6 -50 16 30 43 83 87 88 100 -98 -99 0 
-51 12 28 33 97 98 -99 0 
-49 36 -52 100 -98 -99 0 
-53 98 -99 0 
-54 69 84 98 -99 0 
-33 12 28 51 97 100 -98 -99 0 
-24 27 86 98 -99 0 
-55 -56 -57 92 98 -99 0 
-55 -58 40 44 96 -59 98 -99 0 
-17 -60 45 98 -99 0 
-61 62 -2 98 -99 0 
-5 98 -99 0 
-4 -62 61 -2 98 -99 0 
-6 -62 61 -2 98 -99 0 
-5 98 -99 0 
-18 -7 98 -99 0 
-63 31 34 75 94 98 -99 0 
-21 -64 98 -99 0 
-34 31 63 75 94 98 -99 0 
-65 23 37 48 91 98 -99 0 
-52 98 -99 0 
-66 98 -99 0 
-67 10 79 85 -4 98 -99 0 
-68 32 39 42 98 -99 0 
-69 54 84 98 -99 0 
-70 46 73 77 98 -99 0 
-71 82 98 -99 0 
-72 3 22 41 98 -99 0 
-73 46 70 77 98 -99 0 
-74 13 98 -99 0 
-75 31 34 63 94 98 -99 0 
-3 22 41 72 98 -99 0 
-61 62 98 -99 0 
-76 100 -98 -99 0 
-77 46 70 73 100 -98 -99 0 
-78 98 -99 0 
-77 46 70 73 98 -99 0 
-25 26 -30 16 43 50 83 87 88 -6 98 -99 0 
-79 10 67 85 98 -99 0 
-80 47 100 -98 -99 0 
-25 26 -81 8 29 35 89 90 -82 71 100 -98 -99 0 
-6 -83 16 30 43 50 87 88 100 -98 -99 0 
-12 28 33 51 97 99 -98 0 
-84 54 69 99 -98 0 
-85 10 67 79 98 -99 0 
-53 100 -98 -99 0 
-86 24 27 99 -98 0 
-48 23 37 65 91 98 -99 0 
-87 16 30 43 50 83 88 98 -99 0 
-88 16 30 43 50 83 87 99 -98 0 
-89 8 29 35 81 90 98 -99 0 
-90 8 29 35 81 89 98 -99 0 
-91 23 37 48 65 98 -99 0 
-92 57 98 -99 0 
-93 98 -99 0 
-94 31 34 63 75 98 -99 0 
-95 98 -99 0 
-96 40 44 58 98 -99 0 
-97 12 28 33 51 98 -99 0 
